NAME EXAMPLE13.1
ROWS
 N COST
 E CONSTR1
 E CONSTR2
COLUMNS
    X1        COST          -4
    X1        CONSTR1        1
    X1        CONSTR2        2
    X2        COST          -2
    X2        CONSTR1        1
    X2        CONSTR2      0.5
    X3        CONSTR1        1
    X4        CONSTR2        1
RHS
    B         CONSTR1        5
    B         CONSTR2        8
ENDATA
